32      4       
14      16      16      13      
0       0       0       0       0       2       2       3       
8       0       4       1       0       3       4       5       6       
3       6       0       4       0       3       5       6       7       
9       1       0       0       1       3       7       9       13      
6       1       1       0       0       7       9       11      12      13      15      19      23      
3       1       0       3       0       5       8       14      19      20      24      
1       0       4       1       0       11      10      11      12      14      15      18      19      21      22      23      24      
4       0       6       0       8       10      10      11      12      13      15      16      17      21      22      23      
7       0       0       1       4       8       10      14      16      17      18      20      21      24      
6       0       5       7       0       5       25      26      27      28      31      
5       0       4       0       1       5       25      26      27      28      31      
10      0       0       7       1       5       25      26      27      28      31      
9       10      5       0       0       5       25      26      27      28      31      
1       0       0       1       2       4       26      27      28      31      
10      3       0       0       1       4       25      26      27      28      
3       4       2       0       0       4       25      26      28      31      
4       0       0       13      1       4       25      26      27      28      
3       1       0       4       0       4       25      26      28      31      
6       7       1       0       0       4       26      27      30      31      
8       0       1       0       1       4       26      27      30      31      
8       0       4       0       1       3       25      26      27      
6       1       0       3       0       3       25      26      27      
2       0       5       6       0       2       26      28      
9       2       0       0       13      2       25      27      
4       7       0       0       9       2       29      30      
5       0       0       7       1       1       29      
4       3       3       0       0       1       29      
1       0       6       1       0       1       30      
10      1       9       0       0       1       32      
1       5       0       0       1       1       32      
10      0       0       1       4       1       32      
0       0       0       0       0       0       
